
List of user-set options:

                                    Name   Value                used
                           compl_inf_tol = 1                     yes
                         constr_viol_tol = 1                     yes
                            dual_inf_tol = 1000                  yes
                           linear_solver = ma97                  yes
                              ma86_small = 1e-30                  no
                                  ma86_u = 0.0001                 no
                              ma97_order = best                  yes
                              ma97_small = 1e-30                 yes
                            ma97_switch1 = at_start              yes
                            ma97_switch2 = od_hd_reuse           yes
                                  ma97_u = 1e-06                 yes
                               ma97_umax = 0.5                   yes
                                max_iter = 1000                  yes
                    max_refinement_steps = 20                    yes
                    min_refinement_steps = 5                     yes
                                 mu_init = 1e-06                 yes
           mu_superlinear_decrease_power = 1.25                  yes
                   nlp_scaling_min_value = 1e-08                 yes
                        option_file_name = Preset_Case:_12_pf.opt  yes
                             output_file = ./tmp/Preset_Case:_12_pf.output  yes
                      print_user_options = yes                   yes
        required_infeasibility_reduction = 1                      no
                                     tol = 1e-08                 yes
                   warm_start_bound_frac = 1e-20                 yes
                   warm_start_bound_push = 1e-20                 yes
                   warm_start_init_point = yes                   yes
              warm_start_mult_bound_push = 1e-20                 yes
                warm_start_mult_init_max = 1e+40                 yes
             warm_start_slack_bound_frac = 1e-20                 yes
             warm_start_slack_bound_push = 1e-20                 yes

******************************************************************************
This program contains Ipopt, a library for large-scale nonlinear optimization.
 Ipopt is released as open source code under the Eclipse Public License (EPL).
         For more information visit http://projects.coin-or.org/Ipopt
******************************************************************************

This is Ipopt version 3.12.10, running with linear solver ma97.

Number of nonzeros in equality constraint Jacobian...:   123443
Number of nonzeros in inequality constraint Jacobian.:      213
Number of nonzeros in Lagrangian Hessian.............:    49069

Total number of variables............................:    31591
                     variables with only lower bounds:    12912
                variables with lower and upper bounds:    15130
                     variables with only upper bounds:        0
Total number of equality constraints.................:    31483
Total number of inequality constraints...............:       25
        inequality constraints with only lower bounds:        4
   inequality constraints with lower and upper bounds:        0
        inequality constraints with only upper bounds:       21

iter    objective    inf_pr   inf_du lg(mu)  ||d||  lg(rg) alpha_du alpha_pr  ls
   0 -6.9317912e+00 5.24e-03 1.56e-01  -6.0 0.00e+00    -  0.00e+00 0.00e+00   0
   1 -6.9330083e+00 4.48e-03 6.50e+01  -6.0 3.23e+03    -  2.87e-01 1.77e-03h  1
   2 -7.2579537e+00 1.75e+01 2.81e+03  -6.0 3.22e+03    -  1.66e-02 4.74e-01f  1
   3 -7.2692356e+00 1.66e+01 2.66e+03  -6.0 1.02e+04    -  4.38e-05 5.53e-02h  1
   4 -7.2512038e+00 1.14e+01 1.83e+03  -6.0 5.21e+00  -4.0 3.55e-02 3.12e-01h  1
   5 -7.2358589e+00 6.24e+00 1.01e+03  -6.0 7.00e+00  -4.5 9.46e-02 4.53e-01h  1
   6 -7.2962346e+00 3.54e+00 6.28e+02  -6.0 3.99e+01  -5.0 2.31e-01 4.34e-01h  1
   7 -7.3299350e+00 2.46e+00 4.43e+02  -6.0 3.89e+01  -5.4 3.03e-01 3.05e-01h  1
   8 -7.2761825e+00 6.27e-01 2.16e+02  -6.0 1.89e+01  -5.9 1.09e-02 1.00e+00h  1
   9 -7.3586151e+00 3.04e+00 3.73e+02  -6.0 6.22e+01  -6.4 1.03e-01 5.70e-01h  1
iter    objective    inf_pr   inf_du lg(mu)  ||d||  lg(rg) alpha_du alpha_pr  ls
  10 -7.3674442e+00 2.52e+00 2.87e+02  -6.0 1.24e+02  -6.9 3.25e-01 2.82e-01h  1
  11 -7.3767759e+00 1.89e+00 1.74e+02  -6.0 5.99e+01  -6.4 8.53e-01 7.92e-01h  1
  12 -7.3794352e+00 6.48e-01 1.58e+02  -6.0 1.34e+02  -6.9 4.94e-01 8.53e-01h  1
  13 -7.4142083e+00 8.82e+00 1.96e+03  -6.0 7.10e+02  -7.4 2.37e-01 9.81e-01h  1
  14 -7.4490539e+00 7.25e+00 8.86e+02  -6.0 5.91e+03    -  7.82e-02 1.92e-01h  1
  15 -7.5102351e+00 1.45e+01 7.81e+03  -6.0 3.78e+03    -  4.78e-01 7.09e-01h  1
  16 -7.5098494e+00 1.34e+01 7.15e+03  -6.0 1.10e+03    -  8.39e-02 7.92e-02h  1
  17 -7.5126926e+00 1.17e+01 6.16e+03  -6.0 1.17e+03  -7.9 3.00e-02 1.23e-01h  1
  18 -7.5120166e+00 1.12e+01 5.88e+03  -6.0 1.68e+02  -6.5 2.21e-01 4.50e-02h  1
  19 -7.5218775e+00 1.77e+00 5.13e+03  -6.0 7.55e+02  -7.0 8.16e-02 1.00e+00h  1
iter    objective    inf_pr   inf_du lg(mu)  ||d||  lg(rg) alpha_du alpha_pr  ls
  20 -7.5245948e+00 1.33e+00 4.21e+03  -6.0 4.43e+02  -5.7 3.04e-03 2.56e-01h  1
  21 -7.5390765e+00 1.18e-01 4.38e+03  -6.0 4.44e+02  -6.2 2.89e-01 1.00e+00h  1
  22 -7.5372841e+00 3.89e-01 9.32e+02  -6.0 1.15e+00  -3.9 1.00e+00 1.00e+00h  1
  23 -7.5385098e+00 7.19e-02 9.28e+01  -6.0 1.92e+00  -4.4 3.91e-01 1.00e+00H  1
  24 -7.5396662e+00 9.97e-01 5.24e+01  -6.0 4.22e+00  -4.9 1.00e+00 4.35e-01h  1
  25 -7.5401633e+00 1.82e-01 4.36e+00  -6.0 9.20e+00  -5.4 1.00e+00 1.00e+00h  1
  26 -7.5430971e+00 2.29e-01 7.85e+00  -6.0 2.64e+01  -5.8 1.00e+00 1.00e+00h  1
  27 -7.5498157e+00 8.00e-02 2.99e+00  -6.0 7.07e+01  -6.3 1.00e+00 9.73e-01h  1
  28 -7.5810883e+00 1.17e+01 1.23e+03  -6.0 5.76e+05    -  6.34e-04 2.73e-03f  1
  29 -7.5872145e+00 1.39e+01 1.23e+03  -6.0 4.70e+04    -  1.86e-02 2.92e-03f  1
iter    objective    inf_pr   inf_du lg(mu)  ||d||  lg(rg) alpha_du alpha_pr  ls
  30 -7.6093737e+00 1.08e+01 9.56e+02  -6.0 1.97e+03    -  5.24e-01 2.32e-01h  1
  31 -7.6528095e+00 5.61e+00 6.43e+02  -6.0 1.61e+03    -  8.29e-01 6.00e-01h  1
  32 -7.6707808e+00 5.47e+00 6.85e+02  -6.0 1.57e+03    -  8.30e-01 4.13e-01h  1
  33 -7.6921996e+00 6.04e+00 8.31e+02  -6.0 1.27e+03    -  1.00e+00 1.00e+00h  1
  34 -7.7077877e+00 6.64e+00 1.01e+03  -6.0 1.43e+04    -  3.94e-02 1.95e-02h  1
  35 -7.7250937e+00 1.36e+01 1.62e+03  -6.0 4.46e+03    -  2.88e-01 9.40e-02h  1
  36 -7.7304402e+00 1.11e+01 1.36e+03  -6.0 1.31e+03    -  3.50e-01 2.07e-01h  1
  37 -7.7350194e+00 7.61e+00 1.06e+03  -6.0 1.09e+03    -  7.15e-01 4.04e-01h  1
  38 -7.7333910e+00 3.91e+00 6.54e+02  -6.0 8.53e+02    -  1.00e+00 5.46e-01h  1
  39 -7.7251638e+00 9.10e-01 1.32e+02  -6.0 4.90e+02    -  1.00e+00 1.00e+00h  1
iter    objective    inf_pr   inf_du lg(mu)  ||d||  lg(rg) alpha_du alpha_pr  ls
  40 -7.7222468e+00 2.96e-01 4.02e-01  -6.0 1.43e+02    -  1.00e+00 1.00e+00h  1
  41 -7.7222146e+00 7.08e-02 5.80e-01  -6.0 6.99e+01    -  5.91e-01 1.00e+00h  1
  42 -7.7222100e+00 3.39e-04 6.66e-05  -6.0 4.78e+00    -  1.00e+00 1.00e+00h  1
  43 -7.7222100e+00 3.76e-06 5.96e-07  -6.0 5.11e-01    -  1.00e+00 1.00e+00h  1
  44 -7.7223309e+00 1.36e+00 3.30e+01  -7.5 3.40e+02    -  7.47e-01 8.61e-01h  1
  45 -7.7223096e+00 1.06e-01 3.59e-01  -7.5 7.97e+01    -  1.00e+00 1.00e+00h  1
  46 -7.7223085e+00 6.45e-05 6.09e-05  -7.5 1.83e+00    -  1.00e+00 1.00e+00h  1
  47 -7.7223085e+00 1.50e-08 6.45e-09  -7.5 3.05e-02    -  1.00e+00 1.00e+00h  1
  48 -7.7223099e+00 2.34e-03 7.10e-01  -9.0 1.44e+01    -  9.15e-01 8.38e-01h  1
  49 -7.7223102e+00 9.17e-05 1.97e-01  -9.0 2.38e+00    -  9.55e-01 1.00e+00h  1
iter    objective    inf_pr   inf_du lg(mu)  ||d||  lg(rg) alpha_du alpha_pr  ls
  50 -7.7223102e+00 2.67e-10 4.46e-09  -9.0 2.15e-03    -  1.00e+00 1.00e+00h  1

Number of Iterations....: 50

                                   (scaled)                 (unscaled)
Objective...............:  -6.0330548169818377e+00   -7.7223101657367526e+00
Dual infeasibility......:   4.4584921419625571e-09    5.7068699417120731e-09
Constraint violation....:   2.6674966619247287e-10    2.6674966619247287e-10
Complementarity.........:   1.4874592551200531e-09    1.9039478465536682e-09
Overall NLP error.......:   4.4584921419625571e-09    5.7068699417120731e-09


Number of objective function evaluations             = 52
Number of objective gradient evaluations             = 51
Number of equality constraint evaluations            = 52
Number of inequality constraint evaluations          = 52
Number of equality constraint Jacobian evaluations   = 51
Number of inequality constraint Jacobian evaluations = 51
Number of Lagrangian Hessian evaluations             = 50
Total CPU secs in IPOPT (w/o function evaluations)   =     74.177
Total CPU secs in NLP function evaluations           =      1.107

EXIT: Optimal Solution Found.
